\ Model OWA
\ LP format - for model browsing. Use MPS format to capture full model detail.
Maximize
  2 y[0] + 1.7 y[1] + 1.4 y[2] + 1.1 y[3] + 0.8 y[4]
Subject To
 c_z[0]: - 12 x[0,0] - 20 x[0,1] - 6 x[0,2] - 5 x[0,3] - 8 x[0,4] + z[0]
   = 0
 c_z[1]: - 5 x[1,0] - 12 x[1,1] - 6 x[1,2] - 8 x[1,3] - 5 x[1,4] + z[1]
   = 0
 c_z[2]: - 8 x[2,0] - 5 x[2,1] - 11 x[2,2] - 5 x[2,3] - 6 x[2,4] + z[2]
   = 0
 c_z[3]: - 6 x[3,0] - 8 x[3,1] - 6 x[3,2] - 11 x[3,3] - 5 x[3,4] + z[3]
   = 0
 c_z[4]: - 5 x[4,0] - 6 x[4,1] - 8 x[4,2] - 7 x[4,3] - 7 x[4,4] + z[4] = 0
 c_nbattitems[0]: x[0,0] + x[1,0] + x[2,0] + x[3,0] + x[4,0] <= 1
 c_nbattitems[1]: x[0,1] + x[1,1] + x[2,1] + x[3,1] + x[4,1] <= 1
 c_nbattitems[2]: x[0,2] + x[1,2] + x[2,2] + x[3,2] + x[4,2] <= 1
 c_nbattitems[3]: x[0,3] + x[1,3] + x[2,3] + x[3,3] + x[4,3] <= 1
 c_nbattitems[4]: x[0,4] + x[1,4] + x[2,4] + x[3,4] + x[4,4] <= 1
 c_nbattagents[0]: x[0,0] + x[0,1] + x[0,2] + x[0,3] + x[0,4] <= 1
 c_nbattagents[1]: x[1,0] + x[1,1] + x[1,2] + x[1,3] + x[1,4] <= 1
 c_nbattagents[2]: x[2,0] + x[2,1] + x[2,2] + x[2,3] + x[2,4] <= 1
 c_nbattagents[3]: x[3,0] + x[3,1] + x[3,2] + x[3,3] + x[3,4] <= 1
 c_nbattagents[4]: x[4,0] + x[4,1] + x[4,2] + x[4,3] + x[4,4] <= 1
 c_y_1: y[0] - y[1] <= 0
 c_y_2: y[1] - y[2] <= 0
 c_y_3: y[2] - y[3] <= 0
 c_y_4: y[3] - y[4] <= 0
 c_yz[0][0]: y[0] - z[0] - 1910 b[0,0] <= 0
 c_yz[0][1]: y[0] - z[1] - 1910 b[0,1] <= 0
 c_yz[0][2]: y[0] - z[2] - 1910 b[0,2] <= 0
 c_yz[0][3]: y[0] - z[3] - 1910 b[0,3] <= 0
 c_yz[0][4]: y[0] - z[4] - 1910 b[0,4] <= 0
 c_yz[1][0]: y[1] - z[0] - 1910 b[1,0] <= 0
 c_yz[1][1]: y[1] - z[1] - 1910 b[1,1] <= 0
 c_yz[1][2]: y[1] - z[2] - 1910 b[1,2] <= 0
 c_yz[1][3]: y[1] - z[3] - 1910 b[1,3] <= 0
 c_yz[1][4]: y[1] - z[4] - 1910 b[1,4] <= 0
 c_yz[2][0]: y[2] - z[0] - 1910 b[2,0] <= 0
 c_yz[2][1]: y[2] - z[1] - 1910 b[2,1] <= 0
 c_yz[2][2]: y[2] - z[2] - 1910 b[2,2] <= 0
 c_yz[2][3]: y[2] - z[3] - 1910 b[2,3] <= 0
 c_yz[2][4]: y[2] - z[4] - 1910 b[2,4] <= 0
 c_yz[3][0]: y[3] - z[0] - 1910 b[3,0] <= 0
 c_yz[3][1]: y[3] - z[1] - 1910 b[3,1] <= 0
 c_yz[3][2]: y[3] - z[2] - 1910 b[3,2] <= 0
 c_yz[3][3]: y[3] - z[3] - 1910 b[3,3] <= 0
 c_yz[3][4]: y[3] - z[4] - 1910 b[3,4] <= 0
 c_yz[4][0]: y[4] - z[0] - 1910 b[4,0] <= 0
 c_yz[4][1]: y[4] - z[1] - 1910 b[4,1] <= 0
 c_yz[4][2]: y[4] - z[2] - 1910 b[4,2] <= 0
 c_yz[4][3]: y[4] - z[3] - 1910 b[4,3] <= 0
 c_yz[4][4]: y[4] - z[4] - 1910 b[4,4] <= 0
 c_b[0]: b[0,0] + b[0,1] + b[0,2] + b[0,3] + b[0,4] = 0
 c_b[1]: b[1,0] + b[1,1] + b[1,2] + b[1,3] + b[1,4] = 1
 c_b[2]: b[2,0] + b[2,1] + b[2,2] + b[2,3] + b[2,4] = 2
 c_b[3]: b[3,0] + b[3,1] + b[3,2] + b[3,3] + b[3,4] = 3
 c_b[4]: b[4,0] + b[4,1] + b[4,2] + b[4,3] + b[4,4] = 4
Bounds
Binaries
 x[0,0] x[0,1] x[0,2] x[0,3] x[0,4] x[1,0] x[1,1] x[1,2] x[1,3] x[1,4]
 x[2,0] x[2,1] x[2,2] x[2,3] x[2,4] x[3,0] x[3,1] x[3,2] x[3,3] x[3,4]
 x[4,0] x[4,1] x[4,2] x[4,3] x[4,4] b[0,0] b[0,1] b[0,2] b[0,3] b[0,4]
 b[1,0] b[1,1] b[1,2] b[1,3] b[1,4] b[2,0] b[2,1] b[2,2] b[2,3] b[2,4]
 b[3,0] b[3,1] b[3,2] b[3,3] b[3,4] b[4,0] b[4,1] b[4,2] b[4,3] b[4,4]
End
